7
17
0 73 29 47 4 14 56 12 53 26 51 33 3 74 67 1 72
12
0 15 43 49 24 54 17 23 48 22 55 42
12
0 5 25 10 65 64 37 9 71 39 2 62
12
0 63 68 70 59 69 19 36 35 46 27 61
12
0 60 20 28 44 18 34 57 11 16 50 32
10
0 75 66 6 52 58 13 7 45 21
7
0 8 38 30 31 40 41
